c User generated cnf file
p cnf 15 56
-2 12 3 0 
3 -13 6 0 
-10 5 4 0 
9 3 -9 0 
10 -3 10 0 
-15 6 4 0 
2 10 -12 0 
15 13 -6 0 
14 10 -13 0 
7 -11 6 0 
7 12 -12 0 
-15 4 13 0 
10 -13 14 0 
-14 14 14 0 
-15 4 12 0 
9 -15 11 0 
3 -3 4 0 
8 7 -7 0 
11 -4 15 0 
-2 11 4 0 
15 8 -14 0 
-5 13 2 0 
6 -2 15 0 
7 4 -2 0 
9 7 -3 0 
5 -2 4 0 
15 -9 2 0 
9 12 -6 0 
2 12 -13 0 
7 1 -15 0 
12 -4 2 0 
3 -14 9 0 
14 -11 8 0 
9 -11 7 0 
7 -8 7 0 
4 -4 14 0 
-12 7 13 0 
5 -11 12 0 
13 -15 1 0 
-12 8 9 0 
3 1 -11 0 
-10 9 2 0 
12 -9 9 0 
-2 5 15 0 
-4 11 10 0 
3 7 -5 0 
5 -14 12 0 
2 3 -12 0 
11 12 -13 0 
12 9 -9 0 
13 -11 5 0 
5 15 -13 0 
15 -14 3 0 
11 -9 6 0 
4 15 -6 0 
-8 1 15 0 
